NAME : coverage_path
TYPE : ATSP
DIMENSION : 12
EDGE_WEIGHT_TYPE : EXPLICIT
EDGE_WEIGHT_FORMAT : FULL_MATRIX
EDGE_WEIGHT_SECTION
0 214114 206763 789 204784 211080 216420 213838 206165 203457 210726 216183 
0 0 10080 25471 20308 30088 37101 7999 18079 28005 38081 45094 
0 10080 0 15391 10228 20008 27021 18079 7999 17925 28001 35014 
0 25471 15391 0 5162 14941 21954 33471 23391 13367 22941 29954 
0 20308 10228 5162 0 9779 16792 28308 18228 8205 17779 24792 
0 30088 20008 14941 9779 0 7013 38081 28001 18075 7999 15013 
0 37101 27021 21954 16792 7013 0 45094 35014 25088 15013 7999 
0 7999 18079 33471 28308 38081 45094 0 10080 20005 30081 37094 
0 18079 7999 23391 18228 28001 35014 10080 0 9925 20001 27014 
0 28005 17925 13367 8205 18075 25088 20005 9925 0 10075 17088 
0 38081 28001 22941 17779 7999 15013 30081 20001 10075 0 7013 
0 45094 35014 29954 24792 15013 7999 37094 27014 17088 7013 0 
EOF